WARNING: for repeatability, setting FPU to use double precision
============================[ Problem Statistics ]=============================
|                                                                             |
|  Number of variables:           100                                         |
|  Number of clauses:             449                                         |
|  Parse time:                   0.00 s                                       |
|  Eliminated clauses:           0.00 Mb                                      |
|  Simplification time:          0.00 s                                       |
|                                                                             |
============================[ Search Statistics ]==============================
| Conflicts |          ORIGINAL         |          LEARNT          | Progress |
|           |    Vars  Clauses Literals |    Limit  Clauses Lit/Cl |          |
===============================================================================
|       100 |      94      437     1351 |      160      100      7 |  0.010 % |
|       250 |      94      437     1351 |      176      167      6 |  0.030 % |
|       475 |      88      404     1252 |      193       67      5 |  6.020 % |
===============================================================================
restarts              : 5
conflicts             : 506            (104373 /sec)
decisions             : 630            (0.00 % random) (129950 /sec)
propagations          : 11273          (2325289 /sec)
conflict literals     : 2959           (23.52 % deleted)
Memory used           : 13.00 MB
CPU time              : 0.004848 s

SATISFIABLE
